c strEdges: 125  randomEdges: 504 
c degrees:  1  2 
c girth: Inf max: -43.604516  
c Hgirth mixed MAXCUT instance
c generated from an undirected graph
c to solve unweighted MaxCut
p cnf 140 1258
33 22 0
-33 -22 0
33 56 0
-33 -56 0
85 77 0
-85 -77 0
116 99 0
-116 -99 0
116 119 0
-116 -119 0
115 109 0
-115 -109 0
115 73 0
-115 -73 0
98 4 0
-98 -4 0
98 6 0
-98 -6 0
121 48 0
-121 -48 0
135 83 0
-135 -83 0
135 95 0
-135 -95 0
58 63 0
-58 -63 0
58 80 0
-58 -80 0
107 125 0
-107 -125 0
107 4 0
-107 -4 0
11 39 0
-11 -39 0
11 22 0
-11 -22 0
62 95 0
-62 -95 0
87 122 0
-87 -122 0
87 59 0
-87 -59 0
15 88 0
-15 -88 0
24 67 0
-24 -67 0
34 136 0
-34 -136 0
34 90 0
-34 -90 0
35 17 0
-35 -17 0
8 123 0
-8 -123 0
8 83 0
-8 -83 0
103 94 0
-103 -94 0
103 104 0
-103 -104 0
27 61 0
-27 -61 0
27 127 0
-27 -127 0
44 78 0
-44 -78 0
44 133 0
-44 -133 0
3 30 0
-3 -30 0
3 21 0
-3 -21 0
111 2 0
-111 -2 0
111 99 0
-111 -99 0
131 69 0
-131 -69 0
131 136 0
-131 -136 0
81 117 0
-81 -117 0
81 114 0
-81 -114 0
129 119 0
-129 -119 0
129 106 0
-129 -106 0
140 36 0
-140 -36 0
140 124 0
-140 -124 0
128 106 0
-128 -106 0
128 72 0
-128 -72 0
49 18 0
-49 -18 0
65 47 0
-65 -47 0
65 25 0
-65 -25 0
41 104 0
-41 -104 0
41 79 0
-41 -79 0
38 19 0
-38 -19 0
38 61 0
-38 -61 0
32 54 0
-32 -54 0
32 139 0
-32 -139 0
92 76 0
-92 -76 0
92 55 0
-92 -55 0
9 1 0
-9 -1 0
9 18 0
-9 -18 0
70 80 0
-70 -80 0
70 26 0
-70 -26 0
50 139 0
-50 -139 0
130 10 0
-130 -10 0
130 39 0
-130 -39 0
108 26 0
-108 -26 0
108 19 0
-108 -19 0
137 56 0
-137 -56 0
42 86 0
-42 -86 0
42 17 0
-42 -17 0
120 55 0
-120 -55 0
120 122 0
-120 -122 0
66 52 0
-66 -52 0
66 40 0
-66 -40 0
23 132 0
-23 -132 0
23 68 0
-23 -68 0
51 64 0
-51 -64 0
51 132 0
-51 -132 0
82 72 0
-82 -72 0
82 52 0
-82 -52 0
13 138 0
-13 -138 0
13 86 0
-13 -86 0
45 46 0
-45 -46 0
96 133 0
-96 -133 0
100 89 0
-100 -89 0
100 69 0
-100 -69 0
75 114 0
-75 -114 0
75 1 0
-75 -1 0
113 118 0
-113 -118 0
7 73 0
-7 -73 0
7 43 0
-7 -43 0
37 21 0
-37 -21 0
110 97 0
-110 -97 0
110 30 0
-110 -30 0
134 127 0
-134 -127 0
134 84 0
-134 -84 0
102 90 0
-102 -90 0
102 36 0
-102 -36 0
14 5 0
-14 -5 0
14 94 0
-14 -94 0
29 68 0
-29 -68 0
29 54 0
-29 -54 0
112 6 0
-112 -6 0
112 2 0
-112 -2 0
74 79 0
-74 -79 0
74 125 0
-74 -125 0
71 91 0
-71 -91 0
71 63 0
-71 -63 0
16 101 0
-16 -101 0
53 59 0
-53 -59 0
53 77 0
-53 -77 0
20 31 0
-20 -31 0
28 40 0
-28 -40 0
28 60 0
-28 -60 0
105 124 0
-105 -124 0
105 78 0
-105 -78 0
93 60 0
-93 -60 0
93 118 0
-93 -118 0
57 84 0
-57 -84 0
57 64 0
-57 -64 0
12 43 0
-12 -43 0
12 5 0
-12 -5 0
126 25 0
-126 -25 0
126 46 0
-126 -46 0
87 133 0
-87 -133 0
119 84 0
-119 -84 0
27 71 0
-27 -71 0
107 80 0
-107 -80 0
3 43 0
-3 -43 0
120 73 0
-120 -73 0
53 60 0
-53 -60 0
24 69 0
-24 -69 0
33 93 0
-33 -93 0
7 80 0
-7 -80 0
65 21 0
-65 -21 0
129 104 0
-129 -104 0
35 80 0
-35 -80 0
29 12 0
-29 -12 0
3 106 0
-3 -106 0
85 19 0
-85 -19 0
44 41 0
-44 -41 0
42 112 0
-42 -112 0
119 72 0
-119 -72 0
98 129 0
-98 -129 0
66 13 0
-66 -13 0
15 138 0
-15 -138 0
96 83 0
-96 -83 0
111 64 0
-111 -64 0
8 52 0
-8 -52 0
22 79 0
-22 -79 0
102 109 0
-102 -109 0
63 17 0
-63 -17 0
76 114 0
-76 -114 0
26 60 0
-26 -60 0
9 64 0
-9 -64 0
98 18 0
-98 -18 0
58 79 0
-58 -79 0
116 47 0
-116 -47 0
75 125 0
-75 -125 0
37 53 0
-37 -53 0
51 20 0
-51 -20 0
75 104 0
-75 -104 0
55 73 0
-55 -73 0
35 104 0
-35 -104 0
57 122 0
-57 -122 0
13 88 0
-13 -88 0
110 89 0
-110 -89 0
94 56 0
-94 -56 0
23 113 0
-23 -113 0
125 64 0
-125 -64 0
19 5 0
-19 -5 0
42 96 0
-42 -96 0
53 123 0
-53 -123 0
85 108 0
-85 -108 0
4 17 0
-4 -17 0
7 26 0
-7 -26 0
107 137 0
-107 -137 0
11 101 0
-11 -101 0
12 39 0
-12 -39 0
30 56 0
-30 -56 0
24 127 0
-24 -127 0
134 29 0
-134 -29 0
42 31 0
-42 -31 0
1 55 0
-1 -55 0
12 119 0
-12 -119 0
52 124 0
-52 -124 0
62 109 0
-62 -109 0
7 90 0
-7 -90 0
32 12 0
-32 -12 0
66 78 0
-66 -78 0
13 117 0
-13 -117 0
140 89 0
-140 -89 0
36 26 0
-36 -26 0
93 97 0
-93 -97 0
89 101 0
-89 -101 0
98 131 0
-98 -131 0
9 52 0
-9 -52 0
34 13 0
-34 -13 0
9 63 0
-9 -63 0
129 29 0
-129 -29 0
66 59 0
-66 -59 0
18 79 0
-18 -79 0
81 20 0
-81 -20 0
103 88 0
-103 -88 0
82 136 0
-82 -136 0
81 88 0
-81 -88 0
81 80 0
-81 -80 0
8 100 0
-8 -100 0
11 26 0
-11 -26 0
82 17 0
-82 -17 0
88 94 0
-88 -94 0
85 93 0
-85 -93 0
115 138 0
-115 -138 0
39 5 0
-39 -5 0
137 23 0
-137 -23 0
57 21 0
-57 -21 0
108 13 0
-108 -13 0
70 29 0
-70 -29 0
27 14 0
-27 -14 0
35 44 0
-35 -44 0
3 75 0
-3 -75 0
110 80 0
-110 -80 0
2 84 0
-2 -84 0
46 6 0
-46 -6 0
54 80 0
-54 -80 0
77 61 0
-77 -61 0
128 4 0
-128 -4 0
73 59 0
-73 -59 0
95 79 0
-95 -79 0
10 101 0
-10 -101 0
87 102 0
-87 -102 0
9 75 0
-9 -75 0
48 31 0
-48 -31 0
75 132 0
-75 -132 0
12 78 0
-12 -78 0
44 48 0
-44 -48 0
58 87 0
-58 -87 0
17 40 0
-17 -40 0
15 39 0
-15 -39 0
115 4 0
-115 -4 0
56 25 0
-56 -25 0
33 55 0
-33 -55 0
85 53 0
-85 -53 0
14 101 0
-14 -101 0
11 82 0
-11 -82 0
134 63 0
-134 -63 0
34 2 0
-34 -2 0
129 82 0
-129 -82 0
112 122 0
-112 -122 0
17 68 0
-17 -68 0
9 134 0
-9 -134 0
22 40 0
-22 -40 0
99 19 0
-99 -19 0
28 30 0
-28 -30 0
111 122 0
-111 -122 0
33 94 0
-33 -94 0
107 99 0
-107 -99 0
102 26 0
-102 -26 0
41 39 0
-41 -39 0
27 17 0
-27 -17 0
92 80 0
-92 -80 0
120 68 0
-120 -68 0
20 43 0
-20 -43 0
81 119 0
-81 -119 0
98 26 0
-98 -26 0
20 39 0
-20 -39 0
87 124 0
-87 -124 0
76 90 0
-76 -90 0
106 118 0
-106 -118 0
94 78 0
-94 -78 0
94 18 0
-94 -18 0
57 104 0
-57 -104 0
52 84 0
-52 -84 0
27 70 0
-27 -70 0
102 99 0
-102 -99 0
107 79 0
-107 -79 0
34 5 0
-34 -5 0
92 4 0
-92 -4 0
44 94 0
-44 -94 0
89 68 0
-89 -68 0
34 73 0
-34 -73 0
129 76 0
-129 -76 0
140 22 0
-140 -22 0
49 65 0
-49 -65 0
48 90 0
-48 -90 0
53 5 0
-53 -5 0
77 1 0
-77 -1 0
23 105 0
-23 -105 0
30 54 0
-30 -54 0
137 102 0
-137 -102 0
29 109 0
-29 -109 0
122 127 0
-122 -127 0
49 92 0
-49 -92 0
2 132 0
-2 -132 0
63 94 0
-63 -94 0
108 78 0
-108 -78 0
116 73 0
-116 -73 0
125 136 0
-125 -136 0
28 25 0
-28 -25 0
88 118 0
-88 -118 0
48 133 0
-48 -133 0
11 37 0
-11 -37 0
116 91 0
-116 -91 0
32 28 0
-32 -28 0
116 118 0
-116 -118 0
58 127 0
-58 -127 0
29 64 0
-29 -64 0
49 6 0
-49 -6 0
103 32 0
-103 -32 0
15 30 0
-15 -30 0
2 118 0
-2 -118 0
3 131 0
-3 -131 0
11 52 0
-11 -52 0
75 30 0
-75 -30 0
105 63 0
-105 -63 0
103 112 0
-103 -112 0
105 1 0
-105 -1 0
42 75 0
-42 -75 0
120 5 0
-120 -5 0
137 17 0
-137 -17 0
62 59 0
-62 -59 0
123 6 0
-123 -6 0
96 88 0
-96 -88 0
119 114 0
-119 -114 0
48 61 0
-48 -61 0
3 23 0
-3 -23 0
53 22 0
-53 -22 0
13 127 0
-13 -127 0
98 117 0
-98 -117 0
122 97 0
-122 -97 0
98 31 0
-98 -31 0
14 84 0
-14 -84 0
22 88 0
-22 -88 0
44 22 0
-44 -22 0
83 119 0
-83 -119 0
65 110 0
-65 -110 0
103 10 0
-103 -10 0
48 60 0
-48 -60 0
38 45 0
-38 -45 0
37 10 0
-37 -10 0
112 71 0
-112 -71 0
100 53 0
-100 -53 0
35 39 0
-35 -39 0
121 38 0
-121 -38 0
106 76 0
-106 -76 0
82 113 0
-82 -113 0
139 60 0
-139 -60 0
50 75 0
-50 -75 0
112 125 0
-112 -125 0
62 31 0
-62 -31 0
52 46 0
-52 -46 0
134 93 0
-134 -93 0
24 1 0
-24 -1 0
115 5 0
-115 -5 0
121 138 0
-121 -138 0
42 77 0
-42 -77 0
12 104 0
-12 -104 0
66 17 0
-66 -17 0
130 42 0
-130 -42 0
109 39 0
-109 -39 0
6 124 0
-6 -124 0
82 19 0
-82 -19 0
27 56 0
-27 -56 0
135 74 0
-135 -74 0
117 5 0
-117 -5 0
120 2 0
-120 -2 0
107 14 0
-107 -14 0
113 136 0
-113 -136 0
131 10 0
-131 -10 0
110 5 0
-110 -5 0
69 89 0
-69 -89 0
47 56 0
-47 -56 0
100 112 0
-100 -112 0
121 109 0
-121 -109 0
69 73 0
-69 -73 0
119 124 0
-119 -124 0
17 30 0
-17 -30 0
98 1 0
-98 -1 0
87 63 0
-87 -63 0
87 18 0
-87 -18 0
65 66 0
-65 -66 0
3 61 0
-3 -61 0
116 113 0
-116 -113 0
122 69 0
-122 -69 0
70 97 0
-70 -97 0
66 114 0
-66 -114 0
35 12 0
-35 -12 0
11 5 0
-11 -5 0
111 81 0
-111 -81 0
130 125 0
-130 -125 0
20 60 0
-20 -60 0
113 112 0
-113 -112 0
122 19 0
-122 -19 0
24 88 0
-24 -88 0
32 40 0
-32 -40 0
83 26 0
-83 -26 0
121 74 0
-121 -74 0
102 60 0
-102 -60 0
42 95 0
-42 -95 0
39 124 0
-39 -124 0
137 126 0
-137 -126 0
62 49 0
-62 -49 0
81 41 0
-81 -41 0
44 20 0
-44 -20 0
44 2 0
-44 -2 0
44 125 0
-44 -125 0
7 64 0
-7 -64 0
45 67 0
-45 -67 0
44 59 0
-44 -59 0
115 103 0
-115 -103 0
107 131 0
-107 -131 0
126 18 0
-126 -18 0
123 73 0
-123 -73 0
48 79 0
-48 -79 0
98 113 0
-98 -113 0
29 95 0
-29 -95 0
89 31 0
-89 -31 0
133 73 0
-133 -73 0
22 124 0
-22 -124 0
53 56 0
-53 -56 0
131 48 0
-131 -48 0
78 59 0
-78 -59 0
122 59 0
-122 -59 0
123 26 0
-123 -26 0
7 69 0
-7 -69 0
129 60 0
-129 -60 0
8 82 0
-8 -82 0
36 84 0
-36 -84 0
77 104 0
-77 -104 0
1 118 0
-1 -118 0
2 72 0
-2 -72 0
45 40 0
-45 -40 0
135 36 0
-135 -36 0
33 68 0
-33 -68 0
9 100 0
-9 -100 0
14 60 0
-14 -60 0
24 117 0
-24 -117 0
118 97 0
-118 -97 0
56 60 0
-56 -60 0
111 45 0
-111 -45 0
33 29 0
-33 -29 0
44 63 0
-44 -63 0
93 86 0
-93 -86 0
110 43 0
-110 -43 0
96 123 0
-96 -123 0
37 29 0
-37 -29 0
69 138 0
-69 -138 0
36 91 0
-36 -91 0
85 60 0
-85 -60 0
138 73 0
-138 -73 0
104 73 0
-104 -73 0
85 72 0
-85 -72 0
121 84 0
-121 -84 0
24 14 0
-24 -14 0
24 18 0
-24 -18 0
9 108 0
-9 -108 0
4 83 0
-4 -83 0
87 70 0
-87 -70 0
11 78 0
-11 -78 0
137 105 0
-137 -105 0
100 132 0
-100 -132 0
42 127 0
-42 -127 0
23 20 0
-23 -20 0
140 14 0
-140 -14 0
15 2 0
-15 -2 0
135 72 0
-135 -72 0
85 133 0
-85 -133 0
55 91 0
-55 -91 0
58 13 0
-58 -13 0
96 54 0
-96 -54 0
99 61 0
-99 -61 0
32 110 0
-32 -110 0
121 135 0
-121 -135 0
116 12 0
-116 -12 0
107 17 0
-107 -17 0
104 55 0
-104 -55 0
87 39 0
-87 -39 0
94 60 0
-94 -60 0
137 89 0
-137 -89 0
13 28 0
-13 -28 0
135 60 0
-135 -60 0
93 124 0
-93 -124 0
9 132 0
-9 -132 0
34 88 0
-34 -88 0
29 91 0
-29 -91 0
83 17 0
-83 -17 0
36 132 0
-36 -132 0
20 78 0
-20 -78 0
125 80 0
-125 -80 0
92 75 0
-92 -75 0
45 136 0
-45 -136 0
125 18 0
-125 -18 0
135 25 0
-135 -25 0
2 138 0
-2 -138 0
3 125 0
-3 -125 0
29 55 0
-29 -55 0
38 69 0
-38 -69 0
37 40 0
-37 -40 0
50 126 0
-50 -126 0
135 62 0
-135 -62 0
109 21 0
-109 -21 0
33 72 0
-33 -72 0
51 18 0
-51 -18 0
70 110 0
-70 -110 0
39 6 0
-39 -6 0
32 119 0
-32 -119 0
15 78 0
-15 -78 0
17 139 0
-17 -139 0
92 84 0
-92 -84 0
32 10 0
-32 -10 0
61 132 0
-61 -132 0
33 117 0
-33 -117 0
7 114 0
-7 -114 0
82 97 0
-82 -97 0
47 31 0
-47 -31 0
139 68 0
-139 -68 0
42 20 0
-42 -20 0
108 54 0
-108 -54 0
134 126 0
-134 -126 0
139 6 0
-139 -6 0
116 64 0
-116 -64 0
108 63 0
-108 -63 0
35 132 0
-35 -132 0
13 122 0
-13 -122 0
41 7 0
-41 -7 0
80 90 0
-80 -90 0
104 91 0
-104 -91 0
21 97 0
-21 -97 0
65 105 0
-65 -105 0
140 88 0
-140 -88 0
95 139 0
-95 -139 0
135 53 0
-135 -53 0
57 127 0
-57 -127 0
22 80 0
-22 -80 0
116 72 0
-116 -72 0
14 22 0
-14 -22 0
3 17 0
-3 -17 0
77 117 0
-77 -117 0
135 5 0
-135 -5 0
110 71 0
-110 -71 0
23 7 0
-23 -7 0
115 82 0
-115 -82 0
105 36 0
-105 -36 0
45 88 0
-45 -88 0
128 114 0
-128 -114 0
121 56 0
-121 -56 0
8 5 0
-8 -5 0
129 134 0
-129 -134 0
29 26 0
-29 -26 0
34 59 0
-34 -59 0
38 42 0
-38 -42 0
16 47 0
-16 -47 0
105 80 0
-105 -80 0
39 101 0
-39 -101 0
78 86 0
-78 -86 0
3 97 0
-3 -97 0
50 31 0
-50 -31 0
14 53 0
-14 -53 0
63 59 0
-63 -59 0
113 55 0
-113 -55 0
47 6 0
-47 -6 0
33 98 0
-33 -98 0
44 65 0
-44 -65 0
87 129 0
-87 -129 0
135 58 0
-135 -58 0
29 133 0
-29 -133 0
79 40 0
-79 -40 0
58 111 0
-58 -111 0
56 90 0
-56 -90 0
2 21 0
-2 -21 0
3 54 0
-3 -54 0
38 29 0
-38 -29 0
15 35 0
-15 -35 0
1 6 0
-1 -6 0
50 84 0
-50 -84 0
51 124 0
-51 -124 0
65 92 0
-65 -92 0
22 2 0
-22 -2 0
20 91 0
-20 -91 0
94 55 0
-94 -55 0
113 86 0
-113 -86 0
34 70 0
-34 -70 0
110 74 0
-110 -74 0
87 64 0
-87 -64 0
133 127 0
-133 -127 0
7 53 0
-7 -53 0
27 83 0
-27 -83 0
76 132 0
-76 -132 0
49 120 0
-49 -120 0
35 60 0
-35 -60 0
3 96 0
-3 -96 0
41 113 0
-41 -113 0
98 51 0
-98 -51 0
38 74 0
-38 -74 0
85 90 0
-85 -90 0
134 48 0
-134 -48 0
81 139 0
-81 -139 0
13 134 0
-13 -134 0
38 118 0
-38 -118 0
103 17 0
-103 -17 0
42 55 0
-42 -55 0
58 53 0
-58 -53 0
129 75 0
-129 -75 0
9 118 0
-9 -118 0
49 54 0
-49 -54 0
34 31 0
-34 -31 0
74 90 0
-74 -90 0
53 20 0
-53 -20 0
100 104 0
-100 -104 0
102 122 0
-102 -122 0
42 51 0
-42 -51 0
107 34 0
-107 -34 0
37 76 0
-37 -76 0
115 36 0
-115 -36 0
113 90 0
-113 -90 0
104 84 0
-104 -84 0
102 105 0
-102 -105 0
47 127 0
-47 -127 0
111 73 0
-111 -73 0
112 133 0
-112 -133 0
42 76 0
-42 -76 0
130 122 0
-130 -122 0
13 40 0
-13 -40 0
44 91 0
-44 -91 0
81 66 0
-81 -66 0
14 16 0
-14 -16 0
128 122 0
-128 -122 0
37 136 0
-37 -136 0
